c CNF-Signature OR_20
c 
c $p 20 1
c $m (1,2,3,4,5,6,7,8,9,10,11,12,13,14,15,16,17,18,19,20,21)
c $i 1
c $i 2
c $i 3
c $i 4
c $i 5
c $i 6
c $i 7
c $i 8
c $i 9
c $i 10
c $i 11
c $i 12
c $i 13
c $i 14
c $i 15
c $i 16
c $i 17
c $i 18
c $i 19
c $i 20
c $o 21
p cnf 21 21
-1 21 0
-2 21 0
-3 21 0
-4 21 0
-5 21 0
-6 21 0
-7 21 0
-8 21 0
-9 21 0
-10 21 0
-11 21 0
-12 21 0
-13 21 0
-14 21 0
-15 21 0
-16 21 0
-17 21 0
-18 21 0
-19 21 0
-20 21 0
1 2 3 4 5 6 7 8 9 10 11 12 13 14 15 16 17 18 19 20 -21 0
